TYPE : Vertex Cover
DIMENSION: 31
EDGE_DATA_SECTION:
0 1
0 3
0 5
0 13
0 14
0 16
0 24
0 29
1 3
1 5
1 10
1 11
2 13
2 24
2 26
3 17
3 21
3 24
4 11
4 12
4 22
4 26
5 11
5 21
5 30
6 9
6 11
6 20
6 22
7 21
7 23
7 28
8 13
8 14
8 16
8 22
8 23
8 27
8 30
9 11
9 20
10 13
10 19
10 22
11 17
11 23
12 25
12 26
13 15
13 20
13 24
13 25
14 21
14 24
14 29
14 30
15 24
15 26
15 28
16 19
16 20
16 30
17 25
17 28
18 22
18 28
19 21
20 21
20 25
20 27
20 28
20 29
21 24
22 30
25 27
25 28
26 29
27 29
28 29
28 30
-1
VERTEX_DEGREE:
8.0 5.0 3.0 5.0 4.0 5.0 4.0 3.0 7.0 3.0 4.0 7.0 3.0 8.0 6.0 4.0 5.0 4.0 2.0 3.0 9.0 7.0 6.0 3.0 7.0 6.0 5.0 4.0 8.0 6.0 6.0
VERTEX_COVER:
1 3 5 6 7 8 11 12 13 14 16 19 20 22 24 25 26 28 29
EOF
